100 89858

 582 303
796 714
431 613
454 428
880 240
896 370
239 593
200 351
497 215
901 117
323 880
653 441
709 626
779 491
564 873
403 547
968 481
612 925
729 720
345 112
670 178
258 788
246 836
715 546
522 555
684 632
270 440
599 681
444 109
597 962
291 751
716 632
806 317
260 161
301 410
662 662
696 634
705 383
683 614
393 814
395 27
255 451
157 759
693 547
94 652
938 517
827 992
858 55
907 492
409 92
847 160
159 384
22 156
785 964
75 947
989 337
675 640
754 534
246 816
674 628
44 1
838 764
170 747
698 510
225 903
69 909
482 524
170 608
730 997
238 299
343 325
568 183
285 896
378 745
816 106
180 982
83 731
329 851
425 49
543 505
373 699
790 543
40 667
432 818
383 375
648 849
967 163
511 271
987 44
303 365
31 380
166 806
396 654
317 437
98 653
433 53
339 181
123 627
297 642
887 775
